!
!   GAMESS Calculation input file
!   Molecula de prueba
!
 $CONTRL SCFTYP=RHF MAXIT=200 RUNTYP=OPTIMIZE
         COORD=UNIQUE MULT=1 
         ICHARG=0  
         DFTTYP=B3LYP
         MOLPLT=.FALSE. PLTORB=.FALSE.  $END
 $SYSTEM TIMLIM=2879 MWORDS=250  $END

 $FORCE METHOD=SEMINUM NVIB=2 $END 
 $STATPT OPTTOL=0.0005 NSTEP=999 $END
 $STATPT IHREP=0 HSSEND=.TRUE.  $END

 $DFT    METHOD=GRID  NLEB=590  $END

 $BASIS  GBASIS=N31 NGAUSS=6
         NDFUNC=1   NPFUNC=0  $END

 $SCF    DIRSCF=.T. $END
 $GUESS  GUESS=HUCKEL  $END

 $DATA
   Molecula de prueba
  C1
O     8.0    -0.74564     1.24913     0.14006
C     6.0    -0.89805     0.04903    -0.04424
C     6.0     0.21744    -0.93007    -0.07664
C     6.0     1.49628    -0.52507    -0.03385
H     1.0    -1.89566    -0.39021    -0.20417
H     1.0    -0.04801    -1.97767    -0.14248
H     1.0     1.75752     0.52770     0.02586
H     1.0     2.30796    -1.24216    -0.05971
 $END


! Customizations after this line are persisted when using Do More Calculations
